21506 20613 500 499 498 497 496 495 494 493 492 489 484 483 482 481 480 479 478 477 476 475 474 473 471 470 469 467 466 462 461 460 459 457 456 455 454 453 452 451 449 448 446 445 444 443 441 440 439 437 436 435 434 433 432 431 430 429 427 426 425 424 423 421 420 419 418 416 415 413 412 411 409 408 407 405 404 403 402 401 399 398 396 395 393 392 391 390 389 388 387 386 384 383 382 380 379 378 376 375 372 371 370 369 368 367 366 365 363 362 361 360 359 358 357 356 355 354 353 351 350 349 348 347 346 344 343 342 341 338 337 336 334 333 330 328 325 324 323 322 321 320 319 318 317 316 315 314 313 312 311 310 307 306 305 304 301 298 297 296 295 294 293 292 291 290 288 285 284 283 281 280 278 273 272 271 270 269 268 267 266 264 263 262 260 259 258 257 256 255 253 252 251 250 248 247 246 244 242 241 239 238 237 236 235 234 233 232 231 230 227 226 225 223 222 221 219 218 217 215 214 213 212 211 209 207 205 203 202 201 199 198 197 196 195 194 193 192 191 190 189 188 187 186 185 184 183 182 180 179 178 177 176 175 174 173 172 169 168 167 166 165 164 163 162 161 160 159 158 157 156 155 154 152 151 150 149 148 146 145 144 143 141 140 137 136 135 134 132 131 130 129 127 126 125 124 123 120 119 118 117 115 114 113 112 111 109 108 107 106 105 104 103 102 101 100 98 97 96 95 94 93 91 90 88 87 86 85 84 82 81 80 79 78 77 76 74 73 72 70 69 68 67 66 65 64 63 61 60 59 58 57 56 55 54 52 51 50 48 46 44 43 42 40 39 38 37 36 35 34 33 31 30 28 27 24 23 22 21 20 19 16 15 14 13 12 10 9 7 6 5 4 3 2 